(set-info :min-time 0.177326513)
; Start decls (9)
(declare-fun b10 () (_ FloatingPoint 11 53))
(declare-fun b12 () (_ FloatingPoint 11 53))
(declare-fun b16 () (_ FloatingPoint 11 53))
(declare-fun b19 () (_ FloatingPoint 11 53))
(declare-fun b24 () (_ FloatingPoint 11 53))
(declare-fun b26 () (_ FloatingPoint 11 53))
(declare-fun b29 () (_ FloatingPoint 11 53))
(declare-fun b33 () (_ FloatingPoint 11 53))
(declare-fun b36 () (_ FloatingPoint 11 53))
; End decls
; Start constraints (6)
(assert (fp.lt b19 (fp.add roundNearestTiesToEven b10 b16)))
(assert (fp.leq b10 b12))
(assert (fp.leq b10 b26))
(assert (fp.leq b29 b10))
(assert (fp.leq b24 b33))
(assert (fp.leq b36 b24))
; End constraints
(check-sat)
